# settings

units		lj
dimension	3
boundary 	p f p
atom_style	atomic
#processors      2 2 2

region		box block 0 10 0 19.0 0 10      #create total region
create_box      3 box                                #create simulation box

region		noise_region block 0 10 4 16 0 10 units box     #create wall region
create_atoms	1 random 800 999999 noise_region  	    #create noise atoms 750

#Create walls
lattice		sc 1.
region		wall_south block 0 10 0 3.0 0 10 units box      #create wall region
create_atoms	2 region wall_south           #create atom wall_down

region		wall_north block 0 10 16.0 19.0 0 10 units box     #create wall region
create_atoms	3 region wall_north           #create atom wall_up

mass		1 1.0
mass		2 1.0
mass		3 1.0
#==========================================================================
#for argon
variable	t equal 1.0
variable	rc equal 3.5
variable	srate equal 1
#==========================================================================

# default value
timestep	0.005

# check neighbor parameters
neigh_modify	delay 1 every 1

pair_style      lj/cut ${rc}
#pair_coeff      * * 1.0 1.0 4.5


pair_coeff      1 1 1.0 1.0 3.5

pair_coeff      1 2 0.6 1.0 3.5
pair_coeff      1 3 0.6 1.0 3.5

pair_coeff      2 2 1.0 1.0 3.5
pair_coeff      2 3 1.0 1.0 3.5
pair_coeff      3 3 1.0 1.0 3.5

#=======================================================
group	        flow type 1
group 		upper type 2
group 		lower type 3
group           wall union upper lower 

velocity        flow create 1.0 11111 dist gaussian                                 
velocity        flow scale 1.0

velocity	wall set 0.0 0.0 0.0 units box
fix		wall_setforce wall setforce 0.0 0.0 0.0


#Set dynamical groups for local thermostatting

region 		Region0 block EDGE EDGE 3.0 4.0 EDGE EDGE
group 		group0 dynamic flow region Region0 every 1
compute 	myTemp0 group0 temp/partial 0 1 1
fix         	nh0 group0 nvt temp 1.0 1.0 1
fix_modify 	nh0 temp myTemp0

region 		Region1 block EDGE EDGE 4.0 5.0 EDGE EDGE
group 		group1 dynamic flow region Region1 every 1
compute 	myTemp1 group1 temp/partial 0 1 1
fix         	nh1 group1 nvt temp 1.0 1.0 1
fix_modify 	nh1 temp myTemp1

region 		Region2 block EDGE EDGE 5.0 6.0 EDGE EDGE
group 		group2 dynamic flow region Region2 every 1
compute 	myTemp2 group2 temp/partial 0 1 1
fix         	nh2 group2 nvt temp 1.0 1.0 1
fix_modify 	nh2 temp myTemp2

region 		Region3 block EDGE EDGE 6.0 7.0 EDGE EDGE
group 		group3 dynamic flow region Region3 every 1
compute 	myTemp3 group3 temp/partial 0 1 1
fix         	nh3 group3 nvt temp 1.0 1.0 1
fix_modify 	nh3 temp myTemp3

region 		Region4 block EDGE EDGE 7.0 8.0 EDGE EDGE
group 		group4 dynamic flow region Region4 every 1
compute 	myTemp4 group4 temp/partial 0 1 1
fix         	nh4 group4 nvt temp 1.0 1.0 1
fix_modify 	nh4 temp myTemp4


region 		Region5 block EDGE EDGE 8.0 9.0 EDGE EDGE
group 		group5 dynamic flow region Region5 every 1
compute 	myTemp5 group5 temp/partial 0 1 1
fix         	nh5 group5 nvt temp 1.0 1.0 1
fix_modify 	nh5 temp myTemp5


region 		Region6 block EDGE EDGE 9.0 10.0 EDGE EDGE
group 		group6 dynamic flow region Region6 every 1
compute 	myTemp6 group6 temp/partial 0 1 1
fix         	nh6 group6 nvt temp 1.0 1.0 1
fix_modify 	nh6 temp myTemp6

region 		Region7 block EDGE EDGE 10.0 11.0 EDGE EDGE
group 		group7 dynamic flow region Region7 every 1
compute 	myTemp7 group7 temp/partial 0 1 1
fix         	nh7 group7 nvt temp 1.0 1.0 1
fix_modify 	nh7 temp myTemp7

region 		Region8 block EDGE EDGE 11.0 12.0 EDGE EDGE
group 		group8 dynamic flow region Region8 every 1
compute 	myTemp8 group8 temp/partial 0 1 1
fix         	nh8 group8 nvt temp 1.0 1.0 1
fix_modify 	nh8 temp myTemp8

region 		Region9 block EDGE EDGE 12.0 13.0 EDGE EDGE
group 		group9 dynamic flow region Region9 every 1
compute 	myTemp9 group9 temp/partial 0 1 1
fix         	nh9 group9 nvt temp 1.0 1.0 1
fix_modify 	nh9 temp myTemp9

region 		Region10 block EDGE EDGE 13.0 14.0 EDGE EDGE
group 		group10 dynamic flow region Region10 every 1
compute 	myTemp10 group10 temp/partial 0 1 1
fix         	nh10 group10 nvt temp 1.0 1.0 1
fix_modify 	nh10 temp myTemp10

region 		Region11 block EDGE EDGE 14.0 15.0 EDGE EDGE
group 		group11 dynamic flow region Region11 every 1
compute 	myTemp11 group11 temp/partial 0 1 1
fix         	nh11 group11 nvt temp 1.0 1.0 1
fix_modify 	nh11 temp myTemp11

region 		Region12 block EDGE EDGE 15.0 16.0 EDGE EDGE
group 		group12 dynamic flow region Region12 every 1
compute 	myTemp12 group12 temp/partial 0 1 1
fix         	nh12 group12 nvt temp 1.0 1.0 1
fix_modify 	nh12 temp myTemp12


# Walls integrator
fix 		wall_integrator wall nve
#==========================================================
# Minimizing potential energy
minimize 1.0e-8 1.0e-8 10000 10000
#==========================================================
# Equilibrium run

reset_timestep 0

thermo          10000

compute 	myTemp flow temp/partial 0 1 1
thermo_modify   temp myTemp

run		1000000
#==========================================================
# equilibration run 2

#reset_timestep 0

#velocity	upper set ${srate} 0.0 0.0 units box

#velocity	lower set -${srate} 0.0 0.0 units box

#run		1000000
#==========================================================
# Equilibrium Data Gathering

reset_timestep 0

dump 		checkDump all custom 100 dump.atom id type x y z vx vy vz

run		1000000








